Interface 5
1.000000 
72.0   0.0   0.
 0.0   4.0   0.
 0.0   0.0   4.
Al
72 
Direct 
0.000000 0.0 0.00
0.708333 0.5 0.25
0.708333 0.0 0.75
0.680556 0.5 0.75
0.680556 0.0 0.25
0.652778 0.5 0.25
0.652778 0.0 0.75
0.736111 0.0 0.25
0.625000 0.5 0.75
0.597222 0.5 0.25
0.597222 0.0 0.75
0.569444 0.5 0.75
0.569444 0.0 0.25
0.541667 0.5 0.25
0.541667 0.0 0.75
0.625000 0.0 0.25
0.513889 0.5 0.75
0.736111 0.5 0.75
0.763889 0.5 0.25
0.958333 0.5 0.75
0.958333 0.0 0.25
0.930556 0.5 0.25
0.930556 0.0 0.75
0.902778 0.5 0.75
0.902778 0.0 0.25
0.763889 0.0 0.75
0.875000 0.5 0.25
0.847222 0.5 0.75
0.847222 0.0 0.25
0.819444 0.5 0.25
0.819444 0.0 0.75
0.791667 0.5 0.75
0.791667 0.0 0.25
0.875000 0.0 0.75
0.513889 0.0 0.25
0.444444 0.5 0.50
0.472222 0.5 0.00
0.194444 0.5 0.00
0.194444 0.0 0.50
0.166667 0.0 0.00
0.111111 0.5 0.50
0.138889 0.5 0.00
0.138889 0.0 0.50
0.166667 0.5 0.50
0.111111 0.0 0.00
0.083333 0.5 0.00
0.083333 0.0 0.50
0.055556 0.0 0.00
0.000000 0.5 0.50
0.027778 0.5 0.00
0.027778 0.0 0.50
0.055556 0.5 0.50
0.222222 0.0 0.00
0.250000 0.0 0.50
0.250000 0.5 0.00
0.472222 0.0 0.50
0.444444 0.0 0.00
0.388889 0.5 0.50
0.416667 0.5 0.00
0.416667 0.0 0.50
0.388889 0.0 0.00
0.333333 0.5 0.50
0.361111 0.5 0.00
0.361111 0.0 0.50
0.333333 0.0 0.00
0.277778 0.5 0.50
0.305556 0.5 0.00
0.305556 0.0 0.50
0.277778 0.0 0.00
0.222222 0.5 0.50
0.986111 0.0 0.75
0.986111 0.5 0.25