Interface 37
1.000000 
96.0   0.0   0.
 0.0   4.0   0.
 0.0   0.0   4.
Al
96 
Direct 
0.000000 0.000000 0.0
0.722222 0.666667 0.0
0.722222 0.166667 0.5
0.701389 0.666667 0.5
0.701389 0.166667 0.0
0.680556 0.666667 0.0
0.680556 0.166667 0.5
0.659722 0.666667 0.5
0.659722 0.166667 0.0
0.638889 0.666667 0.0
0.743056 0.166667 0.0
0.638889 0.166667 0.5
0.618056 0.166667 0.0
0.597222 0.666667 0.0
0.597222 0.166667 0.5
0.576389 0.666667 0.5
0.576389 0.166667 0.0
0.555556 0.666667 0.0
0.555556 0.166667 0.5
0.534722 0.666667 0.5
0.534722 0.166667 0.0
0.618056 0.666667 0.5
0.513889 0.666667 0.0
0.743056 0.666667 0.5
0.763889 0.666667 0.0
0.972222 0.666667 0.0
0.972222 0.166667 0.5
0.951389 0.666667 0.5
0.951389 0.166667 0.0
0.930556 0.666667 0.0
0.930556 0.166667 0.5
0.909722 0.666667 0.5
0.909722 0.166667 0.0
0.888889 0.666667 0.0
0.763889 0.166667 0.5
0.888889 0.166667 0.5
0.868056 0.166667 0.0
0.847222 0.666667 0.0
0.847222 0.166667 0.5
0.826389 0.666667 0.5
0.826389 0.166667 0.0
0.805556 0.666667 0.0
0.805556 0.166667 0.5
0.784722 0.666667 0.5
0.784722 0.166667 0.0
0.868056 0.666667 0.5
0.513889 0.166667 0.5
0.458333 0.500000 0.5
0.479167 0.500000 0.0
0.208333 0.000000 0.0
0.166667 0.500000 0.5
0.187500 0.500000 0.0
0.187500 0.000000 0.5
0.166667 0.000000 0.0
0.125000 0.500000 0.5
0.145833 0.500000 0.0
0.145833 0.000000 0.5
0.125000 0.000000 0.0
0.229167 0.000000 0.5
0.083333 0.500000 0.5
0.104167 0.000000 0.5
0.083333 0.000000 0.0
0.041667 0.500000 0.5
0.062500 0.500000 0.0
0.062500 0.000000 0.5
0.041667 0.000000 0.0
0.000000 0.500000 0.5
0.020833 0.500000 0.0
0.020833 0.000000 0.5
0.104167 0.500000 0.0
0.229167 0.500000 0.0
0.208333 0.500000 0.5
0.250000 0.000000 0.0
0.479167 0.000000 0.5
0.458333 0.000000 0.0
0.416667 0.500000 0.5
0.437500 0.500000 0.0
0.437500 0.000000 0.5
0.416667 0.000000 0.0
0.375000 0.500000 0.5
0.395833 0.500000 0.0
0.395833 0.000000 0.5
0.375000 0.000000 0.0
0.333333 0.500000 0.5
0.354167 0.500000 0.0
0.354167 0.000000 0.5
0.333333 0.000000 0.0
0.291667 0.500000 0.5
0.312500 0.500000 0.0
0.312500 0.000000 0.5
0.291667 0.000000 0.0
0.250000 0.500000 0.5
0.270833 0.500000 0.0
0.270833 0.000000 0.5
0.993056 0.166667 0.0
0.993056 0.666667 0.5