Interface 34
1.000000 
56.0   0.0   0.
 0.0   4.0   0.
 0.0   0.0   4.
Al
56 
Direct 
0.000000 0.000000 0.000000
0.547619 0.333333 0.333333
0.547619 0.833333 0.833333
0.583333 0.333333 0.833333
0.583333 0.833333 0.333333
0.619048 0.333333 0.333333
0.619048 0.833333 0.833333
0.654762 0.333333 0.833333
0.654762 0.833333 0.333333
0.690476 0.333333 0.333333
0.690476 0.833333 0.833333
0.726190 0.333333 0.833333
0.511905 0.833333 0.333333
0.726190 0.833333 0.333333
0.761905 0.833333 0.833333
0.797619 0.333333 0.833333
0.797619 0.833333 0.333333
0.833333 0.333333 0.333333
0.833333 0.833333 0.833333
0.869048 0.333333 0.833333
0.869048 0.833333 0.333333
0.904762 0.333333 0.333333
0.904762 0.833333 0.833333
0.940476 0.333333 0.833333
0.940476 0.833333 0.333333
0.761905 0.333333 0.333333
0.511905 0.333333 0.833333
0.428571 0.500000 0.500000
0.464286 0.500000 0.000000
0.035714 0.000000 0.500000
0.035714 0.500000 0.000000
0.000000 0.500000 0.500000
0.071429 0.000000 0.000000
0.107143 0.000000 0.500000
0.107143 0.500000 0.000000
0.071429 0.500000 0.500000
0.142857 0.000000 0.000000
0.178571 0.000000 0.500000
0.178571 0.500000 0.000000
0.142857 0.500000 0.500000
0.214286 0.000000 0.000000
0.250000 0.000000 0.500000
0.250000 0.500000 0.000000
0.214286 0.500000 0.500000
0.285714 0.000000 0.000000
0.321429 0.000000 0.500000
0.321429 0.500000 0.000000
0.285714 0.500000 0.500000
0.357143 0.000000 0.000000
0.392857 0.000000 0.500000
0.392857 0.500000 0.000000
0.357143 0.500000 0.500000
0.428571 0.000000 0.000000
0.464286 0.000000 0.500000
0.976190 0.333333 0.333333
0.976190 0.833333 0.833333