Sym 5 Unit Cell for Al
1.0
4.0  0.0  0.
0.0  4.0  0.
0.0  0.0  4.
Al
4
Direct
0.25 0.   0.25
0.25 0.5  0.75
0.75 0.   0.75
0.75 0.5  0.25