Interface 18
1.000000 
80.0   0.0   0.
 0.0   4.0   0.
 0.0   0.0   4.
Al
80 
Direct 
0.000 0.000000 0.000000
0.700 0.666667 0.666667
0.700 0.166667 0.166667
0.675 0.666667 0.166667
0.675 0.166667 0.666667
0.650 0.666667 0.666667
0.650 0.166667 0.166667
0.625 0.666667 0.166667
0.725 0.166667 0.666667
0.625 0.166667 0.666667
0.600 0.166667 0.166667
0.575 0.666667 0.166667
0.575 0.166667 0.666667
0.550 0.666667 0.666667
0.550 0.166667 0.166667
0.525 0.666667 0.166667
0.525 0.166667 0.666667
0.600 0.666667 0.666667
0.500 0.666667 0.666667
0.725 0.666667 0.166667
0.750 0.666667 0.666667
0.950 0.666667 0.666667
0.950 0.166667 0.166667
0.925 0.666667 0.166667
0.925 0.166667 0.666667
0.900 0.666667 0.666667
0.900 0.166667 0.166667
0.875 0.666667 0.166667
0.750 0.166667 0.166667
0.875 0.166667 0.666667
0.850 0.166667 0.166667
0.825 0.666667 0.166667
0.825 0.166667 0.666667
0.800 0.666667 0.666667
0.800 0.166667 0.166667
0.775 0.666667 0.166667
0.775 0.166667 0.666667
0.850 0.666667 0.666667
0.500 0.166667 0.166667
0.450 0.500000 0.500000
0.475 0.500000 0.000000
0.200 0.000000 0.000000
0.150 0.500000 0.500000
0.175 0.500000 0.000000
0.175 0.000000 0.500000
0.150 0.000000 0.000000
0.100 0.500000 0.500000
0.125 0.500000 0.000000
0.225 0.000000 0.500000
0.125 0.000000 0.500000
0.050 0.500000 0.500000
0.075 0.500000 0.000000
0.075 0.000000 0.500000
0.050 0.000000 0.000000
0.000 0.500000 0.500000
0.025 0.500000 0.000000
0.025 0.000000 0.500000
0.100 0.000000 0.000000
0.225 0.500000 0.000000
0.200 0.500000 0.500000
0.250 0.000000 0.000000
0.475 0.000000 0.500000
0.450 0.000000 0.000000
0.400 0.500000 0.500000
0.425 0.500000 0.000000
0.425 0.000000 0.500000
0.400 0.000000 0.000000
0.350 0.500000 0.500000
0.375 0.500000 0.000000
0.375 0.000000 0.500000
0.350 0.000000 0.000000
0.300 0.500000 0.500000
0.325 0.500000 0.000000
0.325 0.000000 0.500000
0.300 0.000000 0.000000
0.250 0.500000 0.500000
0.275 0.500000 0.000000
0.275 0.000000 0.500000
0.975 0.166667 0.666667
0.975 0.666667 0.166667