Interface 30
1.000000 
88.0   0.0   0.
 0.0   4.0   0.
 0.0   0.0   4.
Al
88 
Direct 
0.000000 0.0 0.0
0.719697 0.5 0.5
0.719697 0.0 0.0
0.696970 0.5 0.0
0.696970 0.0 0.5
0.674242 0.5 0.5
0.674242 0.0 0.0
0.651515 0.5 0.0
0.651515 0.0 0.5
0.742424 0.0 0.5
0.628788 0.5 0.5
0.606061 0.5 0.0
0.606061 0.0 0.5
0.583333 0.5 0.5
0.583333 0.0 0.0
0.560606 0.5 0.0
0.560606 0.0 0.5
0.537879 0.5 0.5
0.537879 0.0 0.0
0.628788 0.0 0.0
0.515152 0.5 0.0
0.742424 0.5 0.0
0.765152 0.5 0.5
0.969697 0.5 0.0
0.969697 0.0 0.5
0.946970 0.5 0.5
0.946970 0.0 0.0
0.924242 0.5 0.0
0.924242 0.0 0.5
0.901515 0.5 0.5
0.901515 0.0 0.0
0.765152 0.0 0.0
0.878788 0.5 0.0
0.856061 0.5 0.5
0.856061 0.0 0.0
0.833333 0.5 0.0
0.833333 0.0 0.5
0.810606 0.5 0.5
0.810606 0.0 0.0
0.787879 0.5 0.0
0.787879 0.0 0.5
0.878788 0.0 0.5
0.515152 0.0 0.5
0.454545 0.5 0.5
0.477273 0.5 0.0
0.204545 0.5 0.0
0.204545 0.0 0.5
0.181818 0.0 0.0
0.136364 0.5 0.5
0.159091 0.5 0.0
0.159091 0.0 0.5
0.136364 0.0 0.0
0.090909 0.5 0.5
0.181818 0.5 0.5
0.113636 0.5 0.0
0.090909 0.0 0.0
0.045455 0.5 0.5
0.068182 0.5 0.0
0.068182 0.0 0.5
0.045455 0.0 0.0
0.000000 0.5 0.5
0.022727 0.5 0.0
0.022727 0.0 0.5
0.113636 0.0 0.5
0.227273 0.0 0.0
0.250000 0.0 0.5
0.250000 0.5 0.0
0.477273 0.0 0.5
0.454545 0.0 0.0
0.409091 0.5 0.5
0.431818 0.5 0.0
0.431818 0.0 0.5
0.409091 0.0 0.0
0.363636 0.5 0.5
0.386364 0.5 0.0
0.386364 0.0 0.5
0.363636 0.0 0.0
0.318182 0.5 0.5
0.340909 0.5 0.0
0.340909 0.0 0.5
0.318182 0.0 0.0
0.272727 0.5 0.5
0.295455 0.5 0.0
0.295455 0.0 0.5
0.272727 0.0 0.0
0.227273 0.5 0.5
0.992424 0.0 0.0
0.992424 0.5 0.5