Interface 21
1.000000 
32.0   0.0   0.
 0.0   4.0   0.
 0.0   0.0   4.
Al
32 
Direct 
0.000000 0.000000 0.000000
0.895833 0.666667 0.166667
0.895833 0.166667 0.666667
0.833333 0.666667 0.666667
0.833333 0.166667 0.166667
0.770833 0.666667 0.166667
0.770833 0.166667 0.666667
0.708333 0.666667 0.666667
0.708333 0.166667 0.166667
0.645833 0.666667 0.166667
0.645833 0.166667 0.666667
0.583333 0.666667 0.666667
0.583333 0.166667 0.166667
0.520833 0.666667 0.166667
0.520833 0.166667 0.666667
0.375000 0.500000 0.500000
0.437500 0.500000 0.000000
0.437500 0.000000 0.500000
0.375000 0.000000 0.000000
0.250000 0.500000 0.500000
0.312500 0.500000 0.000000
0.312500 0.000000 0.500000
0.250000 0.000000 0.000000
0.125000 0.500000 0.500000
0.187500 0.500000 0.000000
0.187500 0.000000 0.500000
0.125000 0.000000 0.000000
0.000000 0.500000 0.500000
0.062500 0.500000 0.000000
0.062500 0.000000 0.500000
0.958333 0.166667 0.166667
0.958333 0.666667 0.666667