Interface 33
1.000000 
72.0   0.0   0.
 0.0   4.0   0.
 0.0   0.0   4.
Al
72 
Direct 
0.000000 0.000000 0.000000
0.712963 0.833333 0.833333
0.712963 0.333333 0.333333
0.685185 0.833333 0.333333
0.685185 0.333333 0.833333
0.657407 0.833333 0.833333
0.657407 0.333333 0.333333
0.740741 0.333333 0.833333
0.629630 0.833333 0.333333
0.601852 0.833333 0.833333
0.601852 0.333333 0.333333
0.574074 0.833333 0.333333
0.574074 0.333333 0.833333
0.546296 0.833333 0.833333
0.546296 0.333333 0.333333
0.629630 0.333333 0.833333
0.518519 0.833333 0.333333
0.740741 0.833333 0.333333
0.768519 0.833333 0.833333
0.962963 0.833333 0.333333
0.962963 0.333333 0.833333
0.935185 0.833333 0.833333
0.935185 0.333333 0.333333
0.907407 0.833333 0.333333
0.907407 0.333333 0.833333
0.768519 0.333333 0.333333
0.879630 0.833333 0.833333
0.851852 0.833333 0.333333
0.851852 0.333333 0.833333
0.824074 0.833333 0.833333
0.824074 0.333333 0.333333
0.796296 0.833333 0.333333
0.796296 0.333333 0.833333
0.879630 0.333333 0.333333
0.518519 0.333333 0.833333
0.444444 0.500000 0.500000
0.472222 0.500000 0.000000
0.194444 0.500000 0.000000
0.194444 0.000000 0.500000
0.166667 0.000000 0.000000
0.111111 0.500000 0.500000
0.138889 0.500000 0.000000
0.138889 0.000000 0.500000
0.166667 0.500000 0.500000
0.111111 0.000000 0.000000
0.083333 0.500000 0.000000
0.083333 0.000000 0.500000
0.055556 0.000000 0.000000
0.000000 0.500000 0.500000
0.027778 0.500000 0.000000
0.027778 0.000000 0.500000
0.055556 0.500000 0.500000
0.222222 0.000000 0.000000
0.250000 0.000000 0.500000
0.250000 0.500000 0.000000
0.472222 0.000000 0.500000
0.444444 0.000000 0.000000
0.388889 0.500000 0.500000
0.416667 0.500000 0.000000
0.416667 0.000000 0.500000
0.388889 0.000000 0.000000
0.333333 0.500000 0.500000
0.361111 0.500000 0.000000
0.361111 0.000000 0.500000
0.333333 0.000000 0.000000
0.277778 0.500000 0.500000
0.305556 0.500000 0.000000
0.305556 0.000000 0.500000
0.277778 0.000000 0.000000
0.222222 0.500000 0.500000
0.990741 0.333333 0.333333
0.990741 0.833333 0.833333