Interface 4
1.000000 
48.0   0.0   0.
 0.0   4.0   0.
 0.0   0.0   4.
Al
48 
Direct 
0.000000 0.00 0.00
0.541667 0.25 0.75
0.541667 0.75 0.25
0.583333 0.25 0.25
0.583333 0.75 0.75
0.625000 0.25 0.75
0.625000 0.75 0.25
0.666667 0.25 0.25
0.666667 0.75 0.75
0.708333 0.25 0.75
0.500000 0.75 0.75
0.708333 0.75 0.25
0.750000 0.75 0.75
0.791667 0.25 0.75
0.791667 0.75 0.25
0.833333 0.25 0.25
0.833333 0.75 0.75
0.875000 0.25 0.75
0.875000 0.75 0.25
0.916667 0.25 0.25
0.916667 0.75 0.75
0.750000 0.25 0.25
0.500000 0.25 0.25
0.416667 0.50 0.50
0.458333 0.50 0.00
0.041667 0.00 0.50
0.041667 0.50 0.00
0.000000 0.50 0.50
0.083333 0.00 0.00
0.125000 0.00 0.50
0.125000 0.50 0.00
0.083333 0.50 0.50
0.166667 0.00 0.00
0.208333 0.00 0.50
0.208333 0.50 0.00
0.166667 0.50 0.50
0.250000 0.00 0.00
0.291667 0.00 0.50
0.291667 0.50 0.00
0.250000 0.50 0.50
0.333333 0.00 0.00
0.375000 0.00 0.50
0.375000 0.50 0.00
0.333333 0.50 0.50
0.416667 0.00 0.00
0.458333 0.00 0.50
0.958333 0.25 0.75
0.958333 0.75 0.25