Bulk|Vacuum  10x4
1.000000 
56.0   0.0   0.
 0.0   4.0   0.
 0.0   0.0   4.
Al
40 
Direct 
0.000000 0.0 0.0
0.392857 0.5 0.0
0.357143 0.5 0.5
0.428571 0.0 0.0
0.464286 0.0 0.5
0.464286 0.5 0.0
0.428571 0.5 0.5
0.500000 0.0 0.0
0.392857 0.0 0.5
0.535714 0.0 0.5
0.500000 0.5 0.5
0.571429 0.0 0.0
0.607143 0.0 0.5
0.607143 0.5 0.0
0.571429 0.5 0.5
0.642857 0.0 0.0
0.678571 0.0 0.5
0.535714 0.5 0.0
0.357143 0.0 0.0
0.285714 0.5 0.5
0.321429 0.5 0.0
0.035714 0.0 0.5
0.035714 0.5 0.0
0.000000 0.5 0.5
0.071429 0.0 0.0
0.107143 0.0 0.5
0.107143 0.5 0.0
0.071429 0.5 0.5
0.142857 0.0 0.0
0.178571 0.0 0.5
0.178571 0.5 0.0
0.142857 0.5 0.5
0.214286 0.0 0.0
0.250000 0.0 0.5
0.250000 0.5 0.0
0.214286 0.5 0.5
0.285714 0.0 0.0
0.321429 0.0 0.5
0.678571 0.5 0.0
0.642857 0.5 0.5