Interface 5
1.000000 
40.0   0.0   0.
 0.0   4.0   0.
 0.0   0.0   4.
Al
40 
Direct 
0.000 0.0 0.00
0.575 0.0 0.75
0.575 0.5 0.25
0.625 0.0 0.25
0.625 0.5 0.75
0.675 0.0 0.75
0.675 0.5 0.25
0.725 0.0 0.25
0.525 0.5 0.75
0.725 0.5 0.75
0.775 0.5 0.25
0.825 0.0 0.25
0.825 0.5 0.75
0.875 0.0 0.75
0.875 0.5 0.25
0.925 0.0 0.25
0.925 0.5 0.75
0.775 0.0 0.75
0.525 0.0 0.25
0.400 0.5 0.50
0.450 0.5 0.00
0.050 0.0 0.50
0.050 0.5 0.00
0.000 0.5 0.50
0.100 0.0 0.00
0.150 0.0 0.50
0.150 0.5 0.00
0.100 0.5 0.50
0.200 0.0 0.00
0.250 0.0 0.50
0.250 0.5 0.00
0.200 0.5 0.50
0.300 0.0 0.00
0.350 0.0 0.50
0.350 0.5 0.00
0.300 0.5 0.50
0.400 0.0 0.00
0.450 0.0 0.50
0.975 0.0 0.75
0.975 0.5 0.25