Interface 17
1.000000 
64.0   0.0   0.
 0.0   4.0   0.
 0.0   0.0   4.
Al
64 
Direct 
0.00000 0.0 0.000000
0.53125 0.0 0.166667
0.53125 0.5 0.666667
0.56250 0.0 0.666667
0.56250 0.5 0.166667
0.59375 0.0 0.166667
0.59375 0.5 0.666667
0.62500 0.0 0.666667
0.62500 0.5 0.166667
0.65625 0.0 0.166667
0.65625 0.5 0.666667
0.68750 0.0 0.666667
0.68750 0.5 0.166667
0.71875 0.0 0.166667
0.50000 0.5 0.166667
0.71875 0.5 0.666667
0.75000 0.5 0.166667
0.78125 0.0 0.166667
0.78125 0.5 0.666667
0.81250 0.0 0.666667
0.81250 0.5 0.166667
0.84375 0.0 0.166667
0.84375 0.5 0.666667
0.87500 0.0 0.666667
0.87500 0.5 0.166667
0.90625 0.0 0.166667
0.90625 0.5 0.666667
0.93750 0.0 0.666667
0.93750 0.5 0.166667
0.75000 0.0 0.666667
0.50000 0.0 0.666667
0.43750 0.5 0.500000
0.46875 0.5 0.000000
0.03125 0.0 0.500000
0.03125 0.5 0.000000
0.00000 0.5 0.500000
0.06250 0.0 0.000000
0.09375 0.0 0.500000
0.09375 0.5 0.000000
0.06250 0.5 0.500000
0.12500 0.0 0.000000
0.15625 0.0 0.500000
0.15625 0.5 0.000000
0.12500 0.5 0.500000
0.18750 0.0 0.000000
0.21875 0.0 0.500000
0.21875 0.5 0.000000
0.18750 0.5 0.500000
0.25000 0.0 0.000000
0.28125 0.0 0.500000
0.28125 0.5 0.000000
0.25000 0.5 0.500000
0.31250 0.0 0.000000
0.34375 0.0 0.500000
0.34375 0.5 0.000000
0.31250 0.5 0.500000
0.37500 0.0 0.000000
0.40625 0.0 0.500000
0.40625 0.5 0.000000
0.37500 0.5 0.500000
0.43750 0.0 0.000000
0.46875 0.0 0.500000
0.96875 0.0 0.166667
0.96875 0.5 0.666667