Bulk|Vacuum  9x4
1.000000 
52.0   0.0   0.
 0.0   4.0   0.
 0.0   0.0   4.
Al
36 
Direct 
0.000000 0.0 0.0
0.384615 0.0 0.0
0.423077 0.0 0.5
0.423077 0.5 0.0
0.384615 0.5 0.5
0.461538 0.0 0.0
0.500000 0.0 0.5
0.307692 0.5 0.5
0.500000 0.5 0.0
0.538462 0.0 0.0
0.576923 0.0 0.5
0.576923 0.5 0.0
0.538462 0.5 0.5
0.615385 0.0 0.0
0.653846 0.0 0.5
0.461538 0.5 0.5
0.346154 0.5 0.0
0.346154 0.0 0.5
0.307692 0.0 0.0
0.038462 0.0 0.5
0.038462 0.5 0.0
0.000000 0.5 0.5
0.076923 0.0 0.0
0.115385 0.0 0.5
0.115385 0.5 0.0
0.076923 0.5 0.5
0.153846 0.0 0.0
0.192308 0.0 0.5
0.192308 0.5 0.0
0.153846 0.5 0.5
0.230769 0.0 0.0
0.269231 0.0 0.5
0.269231 0.5 0.0
0.230769 0.5 0.5
0.653846 0.5 0.0
0.615385 0.5 0.5