Interface 37
1.000000 
64.0   0.0   0.
 0.0   4.0   0.
 0.0   0.0   4.
Al
64 
Direct 
0.000000 0.000000 0.0
0.552083 0.166667 0.0
0.552083 0.666667 0.5
0.583333 0.166667 0.5
0.583333 0.666667 0.0
0.614583 0.166667 0.0
0.614583 0.666667 0.5
0.645833 0.166667 0.5
0.645833 0.666667 0.0
0.677083 0.166667 0.0
0.677083 0.666667 0.5
0.708333 0.166667 0.5
0.708333 0.666667 0.0
0.739583 0.166667 0.0
0.520833 0.666667 0.0
0.739583 0.666667 0.5
0.770833 0.666667 0.0
0.802083 0.166667 0.0
0.802083 0.666667 0.5
0.833333 0.166667 0.5
0.833333 0.666667 0.0
0.864583 0.166667 0.0
0.864583 0.666667 0.5
0.895833 0.166667 0.5
0.895833 0.666667 0.0
0.927083 0.166667 0.0
0.927083 0.666667 0.5
0.958333 0.166667 0.5
0.958333 0.666667 0.0
0.770833 0.166667 0.5
0.520833 0.166667 0.5
0.437500 0.500000 0.5
0.468750 0.500000 0.0
0.031250 0.000000 0.5
0.031250 0.500000 0.0
0.000000 0.500000 0.5
0.062500 0.000000 0.0
0.093750 0.000000 0.5
0.093750 0.500000 0.0
0.062500 0.500000 0.5
0.125000 0.000000 0.0
0.156250 0.000000 0.5
0.156250 0.500000 0.0
0.125000 0.500000 0.5
0.187500 0.000000 0.0
0.218750 0.000000 0.5
0.218750 0.500000 0.0
0.187500 0.500000 0.5
0.250000 0.000000 0.0
0.281250 0.000000 0.5
0.281250 0.500000 0.0
0.250000 0.500000 0.5
0.312500 0.000000 0.0
0.343750 0.000000 0.5
0.343750 0.500000 0.0
0.312500 0.500000 0.5
0.375000 0.000000 0.0
0.406250 0.000000 0.5
0.406250 0.500000 0.0
0.375000 0.500000 0.5
0.437500 0.000000 0.0
0.468750 0.000000 0.5
0.989583 0.166667 0.0
0.989583 0.666667 0.5