Interface 12
1.000000 
56.0   0.0   0.
 0.0   4.0   0.
 0.0   0.0   4.
Al
56 
Direct 
0.000000 0.0 0.000000
0.559524 0.0 0.833333
0.559524 0.5 0.333333
0.595238 0.0 0.333333
0.595238 0.5 0.833333
0.630952 0.0 0.833333
0.630952 0.5 0.333333
0.666667 0.0 0.333333
0.666667 0.5 0.833333
0.702381 0.0 0.833333
0.702381 0.5 0.333333
0.738095 0.0 0.333333
0.523810 0.5 0.833333
0.738095 0.5 0.833333
0.773810 0.5 0.333333
0.809524 0.0 0.333333
0.809524 0.5 0.833333
0.845238 0.0 0.833333
0.845238 0.5 0.333333
0.880952 0.0 0.333333
0.880952 0.5 0.833333
0.916667 0.0 0.833333
0.916667 0.5 0.333333
0.952381 0.0 0.333333
0.952381 0.5 0.833333
0.773810 0.0 0.833333
0.523810 0.0 0.333333
0.428571 0.5 0.500000
0.464286 0.5 0.000000
0.035714 0.0 0.500000
0.035714 0.5 0.000000
0.000000 0.5 0.500000
0.071429 0.0 0.000000
0.107143 0.0 0.500000
0.107143 0.5 0.000000
0.071429 0.5 0.500000
0.142857 0.0 0.000000
0.178571 0.0 0.500000
0.178571 0.5 0.000000
0.142857 0.5 0.500000
0.214286 0.0 0.000000
0.250000 0.0 0.500000
0.250000 0.5 0.000000
0.214286 0.5 0.500000
0.285714 0.0 0.000000
0.321429 0.0 0.500000
0.321429 0.5 0.000000
0.285714 0.5 0.500000
0.357143 0.0 0.000000
0.392857 0.0 0.500000
0.392857 0.5 0.000000
0.357143 0.5 0.500000
0.428571 0.0 0.000000
0.464286 0.0 0.500000
0.988095 0.0 0.833333
0.988095 0.5 0.333333