Interface 22
1.000000 
64.0   0.0   0.
 0.0   4.0   0.
 0.0   0.0   4.
Al
64 
Direct 
0.000000 0.0 0.0
0.546875 0.0 0.0
0.546875 0.5 0.5
0.578125 0.0 0.5
0.578125 0.5 0.0
0.609375 0.0 0.0
0.609375 0.5 0.5
0.640625 0.0 0.5
0.640625 0.5 0.0
0.671875 0.0 0.0
0.671875 0.5 0.5
0.703125 0.0 0.5
0.703125 0.5 0.0
0.734375 0.0 0.0
0.515625 0.5 0.0
0.734375 0.5 0.5
0.765625 0.5 0.0
0.796875 0.0 0.0
0.796875 0.5 0.5
0.828125 0.0 0.5
0.828125 0.5 0.0
0.859375 0.0 0.0
0.859375 0.5 0.5
0.890625 0.0 0.5
0.890625 0.5 0.0
0.921875 0.0 0.0
0.921875 0.5 0.5
0.953125 0.0 0.5
0.953125 0.5 0.0
0.765625 0.0 0.5
0.515625 0.0 0.5
0.437500 0.5 0.5
0.468750 0.5 0.0
0.031250 0.0 0.5
0.031250 0.5 0.0
0.000000 0.5 0.5
0.062500 0.0 0.0
0.093750 0.0 0.5
0.093750 0.5 0.0
0.062500 0.5 0.5
0.125000 0.0 0.0
0.156250 0.0 0.5
0.156250 0.5 0.0
0.125000 0.5 0.5
0.187500 0.0 0.0
0.218750 0.0 0.5
0.218750 0.5 0.0
0.187500 0.5 0.5
0.250000 0.0 0.0
0.281250 0.0 0.5
0.281250 0.5 0.0
0.250000 0.5 0.5
0.312500 0.0 0.0
0.343750 0.0 0.5
0.343750 0.5 0.0
0.312500 0.5 0.5
0.375000 0.0 0.0
0.406250 0.0 0.5
0.406250 0.5 0.0
0.375000 0.5 0.5
0.437500 0.0 0.0
0.468750 0.0 0.5
0.984375 0.0 0.0
0.984375 0.5 0.5