Interface 0
1.000000 
32.0   0.0   0.
 0.0   4.0   0.
 0.0   0.0   4.
Al
32 
Direct 
0.0000 0.0 0.0
0.8750 0.5 0.0
0.8750 0.0 0.5
0.8125 0.5 0.5
0.8125 0.0 0.0
0.7500 0.5 0.0
0.7500 0.0 0.5
0.6875 0.5 0.5
0.6875 0.0 0.0
0.6250 0.5 0.0
0.6250 0.0 0.5
0.5625 0.5 0.5
0.5625 0.0 0.0
0.5000 0.5 0.0
0.5000 0.0 0.5
0.3750 0.5 0.5
0.4375 0.5 0.0
0.4375 0.0 0.5
0.3750 0.0 0.0
0.2500 0.5 0.5
0.3125 0.5 0.0
0.3125 0.0 0.5
0.2500 0.0 0.0
0.1250 0.5 0.5
0.1875 0.5 0.0
0.1875 0.0 0.5
0.1250 0.0 0.0
0.0000 0.5 0.5
0.0625 0.5 0.0
0.0625 0.0 0.5
0.9375 0.0 0.0
0.9375 0.5 0.5