Interface 25
1.000000 
32.0   0.0   0.
 0.0   4.0   0.
 0.0   0.0   4.
Al
32 
Direct 
0.00000 0.00 0.00
0.90625 0.75 0.25
0.90625 0.25 0.75
0.84375 0.75 0.75
0.84375 0.25 0.25
0.78125 0.75 0.25
0.78125 0.25 0.75
0.71875 0.75 0.75
0.71875 0.25 0.25
0.65625 0.75 0.25
0.65625 0.25 0.75
0.59375 0.75 0.75
0.59375 0.25 0.25
0.53125 0.75 0.25
0.53125 0.25 0.75
0.37500 0.50 0.50
0.43750 0.50 0.00
0.43750 0.00 0.50
0.37500 0.00 0.00
0.25000 0.50 0.50
0.31250 0.50 0.00
0.31250 0.00 0.50
0.25000 0.00 0.00
0.12500 0.50 0.50
0.18750 0.50 0.00
0.18750 0.00 0.50
0.12500 0.00 0.00
0.00000 0.50 0.50
0.06250 0.50 0.00
0.06250 0.00 0.50
0.96875 0.25 0.25
0.96875 0.75 0.75