Sym 35 Unit Cell for Al
1.0
4.0  0.0  0.
0.0  4.0  0.
0.0  0.0  4.
Al
4
Direct
0.33333333 0.16666667 0.16666667
0.33333333 0.66666667 0.66666667
0.83333333 0.16666667 0.66666667
0.83333333 0.66666667 0.16666667