Interface 34
1.000000 
88.0   0.0   0.
 0.0   4.0   0.
 0.0   0.0   4.
Al
88 
Direct 
0.000000 0.000000 0.000000
0.712121 0.833333 0.833333
0.712121 0.333333 0.333333
0.689394 0.833333 0.333333
0.689394 0.333333 0.833333
0.666667 0.833333 0.833333
0.666667 0.333333 0.333333
0.643939 0.833333 0.333333
0.643939 0.333333 0.833333
0.734848 0.333333 0.833333
0.621212 0.833333 0.833333
0.598485 0.833333 0.333333
0.598485 0.333333 0.833333
0.575758 0.833333 0.833333
0.575758 0.333333 0.333333
0.553030 0.833333 0.333333
0.553030 0.333333 0.833333
0.530303 0.833333 0.833333
0.530303 0.333333 0.333333
0.621212 0.333333 0.333333
0.507576 0.833333 0.333333
0.734848 0.833333 0.333333
0.757576 0.833333 0.833333
0.962121 0.833333 0.333333
0.962121 0.333333 0.833333
0.939394 0.833333 0.833333
0.939394 0.333333 0.333333
0.916667 0.833333 0.333333
0.916667 0.333333 0.833333
0.893939 0.833333 0.833333
0.893939 0.333333 0.333333
0.757576 0.333333 0.333333
0.871212 0.833333 0.333333
0.848485 0.833333 0.833333
0.848485 0.333333 0.333333
0.825758 0.833333 0.333333
0.825758 0.333333 0.833333
0.803030 0.833333 0.833333
0.803030 0.333333 0.333333
0.780303 0.833333 0.333333
0.780303 0.333333 0.833333
0.871212 0.333333 0.833333
0.507576 0.333333 0.833333
0.454545 0.500000 0.500000
0.477273 0.500000 0.000000
0.204545 0.500000 0.000000
0.204545 0.000000 0.500000
0.181818 0.000000 0.000000
0.136364 0.500000 0.500000
0.159091 0.500000 0.000000
0.159091 0.000000 0.500000
0.136364 0.000000 0.000000
0.090909 0.500000 0.500000
0.181818 0.500000 0.500000
0.113636 0.500000 0.000000
0.090909 0.000000 0.000000
0.045455 0.500000 0.500000
0.068182 0.500000 0.000000
0.068182 0.000000 0.500000
0.045455 0.000000 0.000000
0.000000 0.500000 0.500000
0.022727 0.500000 0.000000
0.022727 0.000000 0.500000
0.113636 0.000000 0.500000
0.227273 0.000000 0.000000
0.250000 0.000000 0.500000
0.250000 0.500000 0.000000
0.477273 0.000000 0.500000
0.454545 0.000000 0.000000
0.409091 0.500000 0.500000
0.431818 0.500000 0.000000
0.431818 0.000000 0.500000
0.409091 0.000000 0.000000
0.363636 0.500000 0.500000
0.386364 0.500000 0.000000
0.386364 0.000000 0.500000
0.363636 0.000000 0.000000
0.318182 0.500000 0.500000
0.340909 0.500000 0.000000
0.340909 0.000000 0.500000
0.318182 0.000000 0.000000
0.272727 0.500000 0.500000
0.295455 0.500000 0.000000
0.295455 0.000000 0.500000
0.272727 0.000000 0.000000
0.227273 0.500000 0.500000
0.984848 0.333333 0.333333
0.984848 0.833333 0.833333