Interface 22
1.000000 
80.0   0.0   0.
 0.0   4.0   0.
 0.0   0.0   4.
Al
80 
Direct 
0.0000 0.0 0.0
0.7125 0.5 0.0
0.7125 0.0 0.5
0.6875 0.5 0.5
0.6875 0.0 0.0
0.6625 0.5 0.0
0.6625 0.0 0.5
0.6375 0.5 0.5
0.7375 0.0 0.0
0.6375 0.0 0.0
0.6125 0.0 0.5
0.5875 0.5 0.5
0.5875 0.0 0.0
0.5625 0.5 0.0
0.5625 0.0 0.5
0.5375 0.5 0.5
0.5375 0.0 0.0
0.6125 0.5 0.0
0.5125 0.5 0.0
0.7375 0.5 0.5
0.7625 0.5 0.0
0.9625 0.5 0.0
0.9625 0.0 0.5
0.9375 0.5 0.5
0.9375 0.0 0.0
0.9125 0.5 0.0
0.9125 0.0 0.5
0.8875 0.5 0.5
0.7625 0.0 0.5
0.8875 0.0 0.0
0.8625 0.0 0.5
0.8375 0.5 0.5
0.8375 0.0 0.0
0.8125 0.5 0.0
0.8125 0.0 0.5
0.7875 0.5 0.5
0.7875 0.0 0.0
0.8625 0.5 0.0
0.5125 0.0 0.5
0.4500 0.5 0.5
0.4750 0.5 0.0
0.2000 0.0 0.0
0.1500 0.5 0.5
0.1750 0.5 0.0
0.1750 0.0 0.5
0.1500 0.0 0.0
0.1000 0.5 0.5
0.1250 0.5 0.0
0.2250 0.0 0.5
0.1250 0.0 0.5
0.0500 0.5 0.5
0.0750 0.5 0.0
0.0750 0.0 0.5
0.0500 0.0 0.0
0.0000 0.5 0.5
0.0250 0.5 0.0
0.0250 0.0 0.5
0.1000 0.0 0.0
0.2250 0.5 0.0
0.2000 0.5 0.5
0.2500 0.0 0.0
0.4750 0.0 0.5
0.4500 0.0 0.0
0.4000 0.5 0.5
0.4250 0.5 0.0
0.4250 0.0 0.5
0.4000 0.0 0.0
0.3500 0.5 0.5
0.3750 0.5 0.0
0.3750 0.0 0.5
0.3500 0.0 0.0
0.3000 0.5 0.5
0.3250 0.5 0.0
0.3250 0.0 0.5
0.3000 0.0 0.0
0.2500 0.5 0.5
0.2750 0.5 0.0
0.2750 0.0 0.5
0.9875 0.0 0.0
0.9875 0.5 0.5