Interface 21
1.000000 
72.0   0.0   0.
 0.0   4.0   0.
 0.0   0.0   4.
Al
72 
Direct 
0.000000 0.000000 0.000000
0.703704 0.666667 0.666667
0.703704 0.166667 0.166667
0.675926 0.666667 0.166667
0.675926 0.166667 0.666667
0.648148 0.666667 0.666667
0.648148 0.166667 0.166667
0.731481 0.166667 0.666667
0.620370 0.666667 0.166667
0.592593 0.666667 0.666667
0.592593 0.166667 0.166667
0.564815 0.666667 0.166667
0.564815 0.166667 0.666667
0.537037 0.666667 0.666667
0.537037 0.166667 0.166667
0.620370 0.166667 0.666667
0.509259 0.666667 0.166667
0.731481 0.666667 0.166667
0.759259 0.666667 0.666667
0.953704 0.666667 0.166667
0.953704 0.166667 0.666667
0.925926 0.666667 0.666667
0.925926 0.166667 0.166667
0.898148 0.666667 0.166667
0.898148 0.166667 0.666667
0.759259 0.166667 0.166667
0.870370 0.666667 0.666667
0.842593 0.666667 0.166667
0.842593 0.166667 0.666667
0.814815 0.666667 0.666667
0.814815 0.166667 0.166667
0.787037 0.666667 0.166667
0.787037 0.166667 0.666667
0.870370 0.166667 0.166667
0.509259 0.166667 0.666667
0.444444 0.500000 0.500000
0.472222 0.500000 0.000000
0.194444 0.500000 0.000000
0.194444 0.000000 0.500000
0.166667 0.000000 0.000000
0.111111 0.500000 0.500000
0.138889 0.500000 0.000000
0.138889 0.000000 0.500000
0.166667 0.500000 0.500000
0.111111 0.000000 0.000000
0.083333 0.500000 0.000000
0.083333 0.000000 0.500000
0.055556 0.000000 0.000000
0.000000 0.500000 0.500000
0.027778 0.500000 0.000000
0.027778 0.000000 0.500000
0.055556 0.500000 0.500000
0.222222 0.000000 0.000000
0.250000 0.000000 0.500000
0.250000 0.500000 0.000000
0.472222 0.000000 0.500000
0.444444 0.000000 0.000000
0.388889 0.500000 0.500000
0.416667 0.500000 0.000000
0.416667 0.000000 0.500000
0.388889 0.000000 0.000000
0.333333 0.500000 0.500000
0.361111 0.500000 0.000000
0.361111 0.000000 0.500000
0.333333 0.000000 0.000000
0.277778 0.500000 0.500000
0.305556 0.500000 0.000000
0.305556 0.000000 0.500000
0.277778 0.000000 0.000000
0.222222 0.500000 0.500000
0.981481 0.166667 0.166667
0.981481 0.666667 0.666667