Sym 0 Unit Cell for Al
1.0
4.0  0.0  0.
0.0  4.0  0.
0.0  0.0  4.
Al
4
Direct
0.  0.  0.5
0.  0.5 0. 
0.5 0.  0. 
0.5 0.5 0.5