Interface 4
1.000000 
40.0   0.0   0.
 0.0   4.0   0.
 0.0   0.0   4.
Al
40 
Direct 
0.00 0.00 0.00
0.55 0.25 0.75
0.55 0.75 0.25
0.60 0.25 0.25
0.60 0.75 0.75
0.65 0.25 0.75
0.65 0.75 0.25
0.70 0.25 0.25
0.50 0.75 0.75
0.70 0.75 0.75
0.75 0.75 0.25
0.80 0.25 0.25
0.80 0.75 0.75
0.85 0.25 0.75
0.85 0.75 0.25
0.90 0.25 0.25
0.90 0.75 0.75
0.75 0.25 0.75
0.50 0.25 0.25
0.40 0.50 0.50
0.45 0.50 0.00
0.05 0.00 0.50
0.05 0.50 0.00
0.00 0.50 0.50
0.10 0.00 0.00
0.15 0.00 0.50
0.15 0.50 0.00
0.10 0.50 0.50
0.20 0.00 0.00
0.25 0.00 0.50
0.25 0.50 0.00
0.20 0.50 0.50
0.30 0.00 0.00
0.35 0.00 0.50
0.35 0.50 0.00
0.30 0.50 0.50
0.40 0.00 0.00
0.45 0.00 0.50
0.95 0.25 0.75
0.95 0.75 0.25