Bulk|Vacuum  8x4
1.000000 
48.0   0.0   0.
 0.0   4.0   0.
 0.0   0.0   4.
Al
32 
Direct 
0.000000 0.0 0.0
0.625000 0.0 0.5
0.583333 0.0 0.0
0.500000 0.5 0.5
0.541667 0.5 0.0
0.541667 0.0 0.5
0.500000 0.0 0.0
0.416667 0.5 0.5
0.458333 0.5 0.0
0.458333 0.0 0.5
0.416667 0.0 0.0
0.333333 0.5 0.5
0.375000 0.5 0.0
0.375000 0.0 0.5
0.333333 0.0 0.0
0.250000 0.5 0.5
0.291667 0.5 0.0
0.291667 0.0 0.5
0.250000 0.0 0.0
0.166667 0.5 0.5
0.208333 0.5 0.0
0.208333 0.0 0.5
0.166667 0.0 0.0
0.083333 0.5 0.5
0.125000 0.5 0.0
0.125000 0.0 0.5
0.083333 0.0 0.0
0.000000 0.5 0.5
0.041667 0.5 0.0
0.041667 0.0 0.5
0.625000 0.5 0.0
0.583333 0.5 0.5