Bulk|Vacuum  6x4
1.000000 
40.0   0.0   0.
 0.0   4.0   0.
 0.0   0.0   4.
Al
24 
Direct 
0.00 0.0 0.0
0.55 0.0 0.5
0.50 0.0 0.0
0.40 0.5 0.5
0.45 0.5 0.0
0.45 0.0 0.5
0.40 0.0 0.0
0.30 0.5 0.5
0.35 0.5 0.0
0.35 0.0 0.5
0.30 0.0 0.0
0.20 0.5 0.5
0.25 0.5 0.0
0.25 0.0 0.5
0.20 0.0 0.0
0.10 0.5 0.5
0.15 0.5 0.0
0.15 0.0 0.5
0.10 0.0 0.0
0.00 0.5 0.5
0.05 0.5 0.0
0.05 0.0 0.5
0.55 0.5 0.0
0.50 0.5 0.5