Interface 5
1.000000 
32.0   0.0   0.
 0.0   4.0   0.
 0.0   0.0   4.
Al
32 
Direct 
0.00000 0.0 0.00
0.90625 0.5 0.75
0.90625 0.0 0.25
0.84375 0.5 0.25
0.84375 0.0 0.75
0.78125 0.5 0.75
0.78125 0.0 0.25
0.71875 0.5 0.25
0.71875 0.0 0.75
0.65625 0.5 0.75
0.65625 0.0 0.25
0.59375 0.5 0.25
0.59375 0.0 0.75
0.53125 0.5 0.75
0.53125 0.0 0.25
0.37500 0.5 0.50
0.43750 0.5 0.00
0.43750 0.0 0.50
0.37500 0.0 0.00
0.25000 0.5 0.50
0.31250 0.5 0.00
0.31250 0.0 0.50
0.25000 0.0 0.00
0.12500 0.5 0.50
0.18750 0.5 0.00
0.18750 0.0 0.50
0.12500 0.0 0.00
0.00000 0.5 0.50
0.06250 0.5 0.00
0.06250 0.0 0.50
0.96875 0.0 0.75
0.96875 0.5 0.25