Bulk|Vacuum  7x4
1.000000 
44.0   0.0   0.
 0.0   4.0   0.
 0.0   0.0   4.
Al
28 
Direct 
0.000000 0.0 0.0
0.590909 0.0 0.5
0.545455 0.0 0.0
0.454545 0.5 0.5
0.500000 0.5 0.0
0.500000 0.0 0.5
0.454545 0.0 0.0
0.363636 0.5 0.5
0.409091 0.5 0.0
0.409091 0.0 0.5
0.363636 0.0 0.0
0.272727 0.5 0.5
0.318182 0.5 0.0
0.318182 0.0 0.5
0.272727 0.0 0.0
0.181818 0.5 0.5
0.227273 0.5 0.0
0.227273 0.0 0.5
0.181818 0.0 0.0
0.090909 0.5 0.5
0.136364 0.5 0.0
0.136364 0.0 0.5
0.090909 0.0 0.0
0.000000 0.5 0.5
0.045455 0.5 0.0
0.045455 0.0 0.5
0.590909 0.5 0.0
0.545455 0.5 0.5