Interface 12
1.000000 
96.0   0.0   0.
 0.0   4.0   0.
 0.0   0.0   4.
Al
96 
Direct 
0.000000 0.0 0.000000
0.722222 0.5 0.833333
0.722222 0.0 0.333333
0.701389 0.5 0.333333
0.701389 0.0 0.833333
0.680556 0.5 0.833333
0.680556 0.0 0.333333
0.659722 0.5 0.333333
0.659722 0.0 0.833333
0.638889 0.5 0.833333
0.743056 0.0 0.833333
0.638889 0.0 0.333333
0.618056 0.0 0.833333
0.597222 0.5 0.833333
0.597222 0.0 0.333333
0.576389 0.5 0.333333
0.576389 0.0 0.833333
0.555556 0.5 0.833333
0.555556 0.0 0.333333
0.534722 0.5 0.333333
0.534722 0.0 0.833333
0.618056 0.5 0.333333
0.513889 0.5 0.833333
0.743056 0.5 0.333333
0.763889 0.5 0.833333
0.972222 0.5 0.833333
0.972222 0.0 0.333333
0.951389 0.5 0.333333
0.951389 0.0 0.833333
0.930556 0.5 0.833333
0.930556 0.0 0.333333
0.909722 0.5 0.333333
0.909722 0.0 0.833333
0.888889 0.5 0.833333
0.763889 0.0 0.333333
0.888889 0.0 0.333333
0.868056 0.0 0.833333
0.847222 0.5 0.833333
0.847222 0.0 0.333333
0.826389 0.5 0.333333
0.826389 0.0 0.833333
0.805556 0.5 0.833333
0.805556 0.0 0.333333
0.784722 0.5 0.333333
0.784722 0.0 0.833333
0.868056 0.5 0.333333
0.513889 0.0 0.333333
0.458333 0.5 0.500000
0.479167 0.5 0.000000
0.208333 0.0 0.000000
0.166667 0.5 0.500000
0.187500 0.5 0.000000
0.187500 0.0 0.500000
0.166667 0.0 0.000000
0.125000 0.5 0.500000
0.145833 0.5 0.000000
0.145833 0.0 0.500000
0.125000 0.0 0.000000
0.229167 0.0 0.500000
0.083333 0.5 0.500000
0.104167 0.0 0.500000
0.083333 0.0 0.000000
0.041667 0.5 0.500000
0.062500 0.5 0.000000
0.062500 0.0 0.500000
0.041667 0.0 0.000000
0.000000 0.5 0.500000
0.020833 0.5 0.000000
0.020833 0.0 0.500000
0.104167 0.5 0.000000
0.229167 0.5 0.000000
0.208333 0.5 0.500000
0.250000 0.0 0.000000
0.479167 0.0 0.500000
0.458333 0.0 0.000000
0.416667 0.5 0.500000
0.437500 0.5 0.000000
0.437500 0.0 0.500000
0.416667 0.0 0.000000
0.375000 0.5 0.500000
0.395833 0.5 0.000000
0.395833 0.0 0.500000
0.375000 0.0 0.000000
0.333333 0.5 0.500000
0.354167 0.5 0.000000
0.354167 0.0 0.500000
0.333333 0.0 0.000000
0.291667 0.5 0.500000
0.312500 0.5 0.000000
0.312500 0.0 0.500000
0.291667 0.0 0.000000
0.250000 0.5 0.500000
0.270833 0.5 0.000000
0.270833 0.0 0.500000
0.993056 0.0 0.833333
0.993056 0.5 0.333333