Interface 15
1.000000 
48.0   0.0   0.
 0.0   4.0   0.
 0.0   0.0   4.
Al
48 
Direct 
0.000000 0.0 0.0
0.555556 0.0 0.0
0.555556 0.5 0.5
0.597222 0.0 0.5
0.597222 0.5 0.0
0.638889 0.0 0.0
0.638889 0.5 0.5
0.680556 0.0 0.5
0.680556 0.5 0.0
0.722222 0.0 0.0
0.513889 0.5 0.0
0.722222 0.5 0.5
0.763889 0.5 0.0
0.805556 0.0 0.0
0.805556 0.5 0.5
0.847222 0.0 0.5
0.847222 0.5 0.0
0.888889 0.0 0.0
0.888889 0.5 0.5
0.930556 0.0 0.5
0.930556 0.5 0.0
0.763889 0.0 0.5
0.513889 0.0 0.5
0.416667 0.5 0.5
0.458333 0.5 0.0
0.041667 0.0 0.5
0.041667 0.5 0.0
0.000000 0.5 0.5
0.083333 0.0 0.0
0.125000 0.0 0.5
0.125000 0.5 0.0
0.083333 0.5 0.5
0.166667 0.0 0.0
0.208333 0.0 0.5
0.208333 0.5 0.0
0.166667 0.5 0.5
0.250000 0.0 0.0
0.291667 0.0 0.5
0.291667 0.5 0.0
0.250000 0.5 0.5
0.333333 0.0 0.0
0.375000 0.0 0.5
0.375000 0.5 0.0
0.333333 0.5 0.5
0.416667 0.0 0.0
0.458333 0.0 0.5
0.972222 0.0 0.0
0.972222 0.5 0.5