Interface 35
1.000000 
48.0   0.0   0.
 0.0   4.0   0.
 0.0   0.0   4.
Al
48 
Direct 
0.000000 0.000000 0.000000
0.569444 0.166667 0.666667
0.569444 0.666667 0.166667
0.611111 0.166667 0.166667
0.611111 0.666667 0.666667
0.652778 0.166667 0.666667
0.652778 0.666667 0.166667
0.694444 0.166667 0.166667
0.694444 0.666667 0.666667
0.736111 0.166667 0.666667
0.527778 0.666667 0.666667
0.736111 0.666667 0.166667
0.777778 0.666667 0.666667
0.819444 0.166667 0.666667
0.819444 0.666667 0.166667
0.861111 0.166667 0.166667
0.861111 0.666667 0.666667
0.902778 0.166667 0.666667
0.902778 0.666667 0.166667
0.944444 0.166667 0.166667
0.944444 0.666667 0.666667
0.777778 0.166667 0.166667
0.527778 0.166667 0.166667
0.416667 0.500000 0.500000
0.458333 0.500000 0.000000
0.041667 0.000000 0.500000
0.041667 0.500000 0.000000
0.000000 0.500000 0.500000
0.083333 0.000000 0.000000
0.125000 0.000000 0.500000
0.125000 0.500000 0.000000
0.083333 0.500000 0.500000
0.166667 0.000000 0.000000
0.208333 0.000000 0.500000
0.208333 0.500000 0.000000
0.166667 0.500000 0.500000
0.250000 0.000000 0.000000
0.291667 0.000000 0.500000
0.291667 0.500000 0.000000
0.250000 0.500000 0.500000
0.333333 0.000000 0.000000
0.375000 0.000000 0.500000
0.375000 0.500000 0.000000
0.333333 0.500000 0.500000
0.416667 0.000000 0.000000
0.458333 0.000000 0.500000
0.986111 0.166667 0.666667
0.986111 0.666667 0.166667