Interface 37
1.000000 
40.0   0.0   0.
 0.0   4.0   0.
 0.0   0.0   4.
Al
40 
Direct 
0.000000 0.000000 0.0
0.583333 0.166667 0.0
0.583333 0.666667 0.5
0.633333 0.166667 0.5
0.633333 0.666667 0.0
0.683333 0.166667 0.0
0.683333 0.666667 0.5
0.733333 0.166667 0.5
0.533333 0.666667 0.0
0.733333 0.666667 0.0
0.783333 0.666667 0.5
0.833333 0.166667 0.5
0.833333 0.666667 0.0
0.883333 0.166667 0.0
0.883333 0.666667 0.5
0.933333 0.166667 0.5
0.933333 0.666667 0.0
0.783333 0.166667 0.0
0.533333 0.166667 0.5
0.400000 0.500000 0.5
0.450000 0.500000 0.0
0.050000 0.000000 0.5
0.050000 0.500000 0.0
0.000000 0.500000 0.5
0.100000 0.000000 0.0
0.150000 0.000000 0.5
0.150000 0.500000 0.0
0.100000 0.500000 0.5
0.200000 0.000000 0.0
0.250000 0.000000 0.5
0.250000 0.500000 0.0
0.200000 0.500000 0.5
0.300000 0.000000 0.0
0.350000 0.000000 0.5
0.350000 0.500000 0.0
0.300000 0.500000 0.5
0.400000 0.000000 0.0
0.450000 0.000000 0.5
0.983333 0.166667 0.0
0.983333 0.666667 0.5