Interface 2
1.000000 
72.0   0.0   0.
 0.0   4.0   0.
 0.0   0.0   4.
Al
72 
Direct 
0.000000 0.00 0.0
0.694444 0.75 0.0
0.694444 0.25 0.5
0.666667 0.75 0.5
0.666667 0.25 0.0
0.638889 0.75 0.0
0.638889 0.25 0.5
0.722222 0.25 0.0
0.611111 0.75 0.5
0.583333 0.75 0.0
0.583333 0.25 0.5
0.555556 0.75 0.5
0.555556 0.25 0.0
0.527778 0.75 0.0
0.527778 0.25 0.5
0.611111 0.25 0.0
0.500000 0.75 0.5
0.722222 0.75 0.5
0.750000 0.75 0.0
0.944444 0.75 0.5
0.944444 0.25 0.0
0.916667 0.75 0.0
0.916667 0.25 0.5
0.888889 0.75 0.5
0.888889 0.25 0.0
0.750000 0.25 0.5
0.861111 0.75 0.0
0.833333 0.75 0.5
0.833333 0.25 0.0
0.805556 0.75 0.0
0.805556 0.25 0.5
0.777778 0.75 0.5
0.777778 0.25 0.0
0.861111 0.25 0.5
0.500000 0.25 0.0
0.444444 0.50 0.5
0.472222 0.50 0.0
0.194444 0.50 0.0
0.194444 0.00 0.5
0.166667 0.00 0.0
0.111111 0.50 0.5
0.138889 0.50 0.0
0.138889 0.00 0.5
0.166667 0.50 0.5
0.111111 0.00 0.0
0.083333 0.50 0.0
0.083333 0.00 0.5
0.055556 0.00 0.0
0.000000 0.50 0.5
0.027778 0.50 0.0
0.027778 0.00 0.5
0.055556 0.50 0.5
0.222222 0.00 0.0
0.250000 0.00 0.5
0.250000 0.50 0.0
0.472222 0.00 0.5
0.444444 0.00 0.0
0.388889 0.50 0.5
0.416667 0.50 0.0
0.416667 0.00 0.5
0.388889 0.00 0.0
0.333333 0.50 0.5
0.361111 0.50 0.0
0.361111 0.00 0.5
0.333333 0.00 0.0
0.277778 0.50 0.5
0.305556 0.50 0.0
0.305556 0.00 0.5
0.277778 0.00 0.0
0.222222 0.50 0.5
0.972222 0.25 0.5
0.972222 0.75 0.0