Bulk|Vacuum  5x4
1.000000 
36.0   0.0   0.
 0.0   4.0   0.
 0.0   0.0   4.
Al
20 
Direct 
0.000000 0.0 0.0
0.500000 0.0 0.5
0.444444 0.0 0.0
0.333333 0.5 0.5
0.388889 0.5 0.0
0.388889 0.0 0.5
0.333333 0.0 0.0
0.222222 0.5 0.5
0.277778 0.5 0.0
0.277778 0.0 0.5
0.222222 0.0 0.0
0.111111 0.5 0.5
0.166667 0.5 0.0
0.166667 0.0 0.5
0.111111 0.0 0.0
0.000000 0.5 0.5
0.055556 0.5 0.0
0.055556 0.0 0.5
0.500000 0.5 0.0
0.444444 0.5 0.5