Interface 11
1.000000 
88.0   0.0   0.
 0.0   4.0   0.
 0.0   0.0   4.
Al
88 
Direct 
0.000000 0.000000 0.000000
0.704545 0.833333 0.333333
0.704545 0.333333 0.833333
0.681818 0.833333 0.833333
0.681818 0.333333 0.333333
0.659091 0.833333 0.333333
0.659091 0.333333 0.833333
0.636364 0.833333 0.833333
0.636364 0.333333 0.333333
0.727273 0.333333 0.333333
0.613636 0.833333 0.333333
0.590909 0.833333 0.833333
0.590909 0.333333 0.333333
0.568182 0.833333 0.333333
0.568182 0.333333 0.833333
0.545455 0.833333 0.833333
0.545455 0.333333 0.333333
0.522727 0.833333 0.333333
0.522727 0.333333 0.833333
0.613636 0.333333 0.833333
0.500000 0.833333 0.833333
0.727273 0.833333 0.833333
0.750000 0.833333 0.333333
0.954545 0.833333 0.833333
0.954545 0.333333 0.333333
0.931818 0.833333 0.333333
0.931818 0.333333 0.833333
0.909091 0.833333 0.833333
0.909091 0.333333 0.333333
0.886364 0.833333 0.333333
0.886364 0.333333 0.833333
0.750000 0.333333 0.833333
0.863636 0.833333 0.833333
0.840909 0.833333 0.333333
0.840909 0.333333 0.833333
0.818182 0.833333 0.833333
0.818182 0.333333 0.333333
0.795455 0.833333 0.333333
0.795455 0.333333 0.833333
0.772727 0.833333 0.833333
0.772727 0.333333 0.333333
0.863636 0.333333 0.333333
0.500000 0.333333 0.333333
0.454545 0.500000 0.500000
0.477273 0.500000 0.000000
0.204545 0.500000 0.000000
0.204545 0.000000 0.500000
0.181818 0.000000 0.000000
0.136364 0.500000 0.500000
0.159091 0.500000 0.000000
0.159091 0.000000 0.500000
0.136364 0.000000 0.000000
0.090909 0.500000 0.500000
0.181818 0.500000 0.500000
0.113636 0.500000 0.000000
0.090909 0.000000 0.000000
0.045455 0.500000 0.500000
0.068182 0.500000 0.000000
0.068182 0.000000 0.500000
0.045455 0.000000 0.000000
0.000000 0.500000 0.500000
0.022727 0.500000 0.000000
0.022727 0.000000 0.500000
0.113636 0.000000 0.500000
0.227273 0.000000 0.000000
0.250000 0.000000 0.500000
0.250000 0.500000 0.000000
0.477273 0.000000 0.500000
0.454545 0.000000 0.000000
0.409091 0.500000 0.500000
0.431818 0.500000 0.000000
0.431818 0.000000 0.500000
0.409091 0.000000 0.000000
0.363636 0.500000 0.500000
0.386364 0.500000 0.000000
0.386364 0.000000 0.500000
0.363636 0.000000 0.000000
0.318182 0.500000 0.500000
0.340909 0.500000 0.000000
0.340909 0.000000 0.500000
0.318182 0.000000 0.000000
0.272727 0.500000 0.500000
0.295455 0.500000 0.000000
0.295455 0.000000 0.500000
0.272727 0.000000 0.000000
0.227273 0.500000 0.500000
0.977273 0.333333 0.833333
0.977273 0.833333 0.333333