Interface 32
1.000000 
56.0   0.0   0.
 0.0   4.0   0.
 0.0   0.0   4.
Al
56 
Direct 
0.000000 0.0 0.000000
0.535714 0.0 0.333333
0.535714 0.5 0.833333
0.571429 0.0 0.833333
0.571429 0.5 0.333333
0.607143 0.0 0.333333
0.607143 0.5 0.833333
0.642857 0.0 0.833333
0.642857 0.5 0.333333
0.678571 0.0 0.333333
0.678571 0.5 0.833333
0.714286 0.0 0.833333
0.500000 0.5 0.333333
0.714286 0.5 0.333333
0.750000 0.5 0.833333
0.785714 0.0 0.833333
0.785714 0.5 0.333333
0.821429 0.0 0.333333
0.821429 0.5 0.833333
0.857143 0.0 0.833333
0.857143 0.5 0.333333
0.892857 0.0 0.333333
0.892857 0.5 0.833333
0.928571 0.0 0.833333
0.928571 0.5 0.333333
0.750000 0.0 0.333333
0.500000 0.0 0.833333
0.428571 0.5 0.500000
0.464286 0.5 0.000000
0.035714 0.0 0.500000
0.035714 0.5 0.000000
0.000000 0.5 0.500000
0.071429 0.0 0.000000
0.107143 0.0 0.500000
0.107143 0.5 0.000000
0.071429 0.5 0.500000
0.142857 0.0 0.000000
0.178571 0.0 0.500000
0.178571 0.5 0.000000
0.142857 0.5 0.500000
0.214286 0.0 0.000000
0.250000 0.0 0.500000
0.250000 0.5 0.000000
0.214286 0.5 0.500000
0.285714 0.0 0.000000
0.321429 0.0 0.500000
0.321429 0.5 0.000000
0.285714 0.5 0.500000
0.357143 0.0 0.000000
0.392857 0.0 0.500000
0.392857 0.5 0.000000
0.357143 0.5 0.500000
0.428571 0.0 0.000000
0.464286 0.0 0.500000
0.964286 0.0 0.333333
0.964286 0.5 0.833333