Interface 3
1.000000 
88.0   0.0   0.
 0.0   4.0   0.
 0.0   0.0   4.
Al
88 
Direct 
0.000000 0.0 0.00
0.704545 0.5 0.25
0.704545 0.0 0.75
0.681818 0.5 0.75
0.681818 0.0 0.25
0.659091 0.5 0.25
0.659091 0.0 0.75
0.636364 0.5 0.75
0.636364 0.0 0.25
0.727273 0.0 0.25
0.613636 0.5 0.25
0.590909 0.5 0.75
0.590909 0.0 0.25
0.568182 0.5 0.25
0.568182 0.0 0.75
0.545455 0.5 0.75
0.545455 0.0 0.25
0.522727 0.5 0.25
0.522727 0.0 0.75
0.613636 0.0 0.75
0.500000 0.5 0.75
0.727273 0.5 0.75
0.750000 0.5 0.25
0.954545 0.5 0.75
0.954545 0.0 0.25
0.931818 0.5 0.25
0.931818 0.0 0.75
0.909091 0.5 0.75
0.909091 0.0 0.25
0.886364 0.5 0.25
0.886364 0.0 0.75
0.750000 0.0 0.75
0.863636 0.5 0.75
0.840909 0.5 0.25
0.840909 0.0 0.75
0.818182 0.5 0.75
0.818182 0.0 0.25
0.795455 0.5 0.25
0.795455 0.0 0.75
0.772727 0.5 0.75
0.772727 0.0 0.25
0.863636 0.0 0.25
0.500000 0.0 0.25
0.454545 0.5 0.50
0.477273 0.5 0.00
0.204545 0.5 0.00
0.204545 0.0 0.50
0.181818 0.0 0.00
0.136364 0.5 0.50
0.159091 0.5 0.00
0.159091 0.0 0.50
0.136364 0.0 0.00
0.090909 0.5 0.50
0.181818 0.5 0.50
0.113636 0.5 0.00
0.090909 0.0 0.00
0.045455 0.5 0.50
0.068182 0.5 0.00
0.068182 0.0 0.50
0.045455 0.0 0.00
0.000000 0.5 0.50
0.022727 0.5 0.00
0.022727 0.0 0.50
0.113636 0.0 0.50
0.227273 0.0 0.00
0.250000 0.0 0.50
0.250000 0.5 0.00
0.477273 0.0 0.50
0.454545 0.0 0.00
0.409091 0.5 0.50
0.431818 0.5 0.00
0.431818 0.0 0.50
0.409091 0.0 0.00
0.363636 0.5 0.50
0.386364 0.5 0.00
0.386364 0.0 0.50
0.363636 0.0 0.00
0.318182 0.5 0.50
0.340909 0.5 0.00
0.340909 0.0 0.50
0.318182 0.0 0.00
0.272727 0.5 0.50
0.295455 0.5 0.00
0.295455 0.0 0.50
0.272727 0.0 0.00
0.227273 0.5 0.50
0.977273 0.0 0.75
0.977273 0.5 0.25