Bulk|Vacuum  4x4
1.000000 
32.0   0.0   0.
 0.0   4.0   0.
 0.0   0.0   4.
Al
16 
Direct 
0.0000 0.0 0.0
0.0625 0.0 0.5
0.0625 0.5 0.0
0.0000 0.5 0.5
0.1250 0.0 0.0
0.1875 0.0 0.5
0.1875 0.5 0.0
0.1250 0.5 0.5
0.2500 0.0 0.0
0.3125 0.0 0.5
0.3125 0.5 0.0
0.2500 0.5 0.5
0.3750 0.0 0.0
0.4375 0.0 0.5
0.4375 0.5 0.0
0.3750 0.5 0.5