Interface 20
1.000000 
96.0   0.0   0.
 0.0   4.0   0.
 0.0   0.0   4.
Al
96 
Direct 
0.000000 0.000000 0.0
0.715278 0.666667 0.5
0.715278 0.166667 0.0
0.694444 0.666667 0.0
0.694444 0.166667 0.5
0.673611 0.666667 0.5
0.673611 0.166667 0.0
0.652778 0.666667 0.0
0.652778 0.166667 0.5
0.631944 0.666667 0.5
0.736111 0.166667 0.5
0.631944 0.166667 0.0
0.611111 0.166667 0.5
0.590278 0.666667 0.5
0.590278 0.166667 0.0
0.569444 0.666667 0.0
0.569444 0.166667 0.5
0.548611 0.666667 0.5
0.548611 0.166667 0.0
0.527778 0.666667 0.0
0.527778 0.166667 0.5
0.611111 0.666667 0.0
0.506944 0.666667 0.5
0.736111 0.666667 0.0
0.756944 0.666667 0.5
0.965278 0.666667 0.5
0.965278 0.166667 0.0
0.944444 0.666667 0.0
0.944444 0.166667 0.5
0.923611 0.666667 0.5
0.923611 0.166667 0.0
0.902778 0.666667 0.0
0.902778 0.166667 0.5
0.881944 0.666667 0.5
0.756944 0.166667 0.0
0.881944 0.166667 0.0
0.861111 0.166667 0.5
0.840278 0.666667 0.5
0.840278 0.166667 0.0
0.819444 0.666667 0.0
0.819444 0.166667 0.5
0.798611 0.666667 0.5
0.798611 0.166667 0.0
0.777778 0.666667 0.0
0.777778 0.166667 0.5
0.861111 0.666667 0.0
0.506944 0.166667 0.0
0.458333 0.500000 0.5
0.479167 0.500000 0.0
0.208333 0.000000 0.0
0.166667 0.500000 0.5
0.187500 0.500000 0.0
0.187500 0.000000 0.5
0.166667 0.000000 0.0
0.125000 0.500000 0.5
0.145833 0.500000 0.0
0.145833 0.000000 0.5
0.125000 0.000000 0.0
0.229167 0.000000 0.5
0.083333 0.500000 0.5
0.104167 0.000000 0.5
0.083333 0.000000 0.0
0.041667 0.500000 0.5
0.062500 0.500000 0.0
0.062500 0.000000 0.5
0.041667 0.000000 0.0
0.000000 0.500000 0.5
0.020833 0.500000 0.0
0.020833 0.000000 0.5
0.104167 0.500000 0.0
0.229167 0.500000 0.0
0.208333 0.500000 0.5
0.250000 0.000000 0.0
0.479167 0.000000 0.5
0.458333 0.000000 0.0
0.416667 0.500000 0.5
0.437500 0.500000 0.0
0.437500 0.000000 0.5
0.416667 0.000000 0.0
0.375000 0.500000 0.5
0.395833 0.500000 0.0
0.395833 0.000000 0.5
0.375000 0.000000 0.0
0.333333 0.500000 0.5
0.354167 0.500000 0.0
0.354167 0.000000 0.5
0.333333 0.000000 0.0
0.291667 0.500000 0.5
0.312500 0.500000 0.0
0.312500 0.000000 0.5
0.291667 0.000000 0.0
0.250000 0.500000 0.5
0.270833 0.500000 0.0
0.270833 0.000000 0.5
0.986111 0.166667 0.5
0.986111 0.666667 0.0