Interface 36
1.000000 
80.0   0.0   0.
 0.0   4.0   0.
 0.0   0.0   4.
Al
80 
Direct 
0.000000 0.000000 0.0
0.708333 0.833333 0.0
0.708333 0.333333 0.5
0.683333 0.833333 0.5
0.683333 0.333333 0.0
0.658333 0.833333 0.0
0.658333 0.333333 0.5
0.633333 0.833333 0.5
0.733333 0.333333 0.0
0.633333 0.333333 0.0
0.608333 0.333333 0.5
0.583333 0.833333 0.5
0.583333 0.333333 0.0
0.558333 0.833333 0.0
0.558333 0.333333 0.5
0.533333 0.833333 0.5
0.533333 0.333333 0.0
0.608333 0.833333 0.0
0.508333 0.833333 0.0
0.733333 0.833333 0.5
0.758333 0.833333 0.0
0.958333 0.833333 0.0
0.958333 0.333333 0.5
0.933333 0.833333 0.5
0.933333 0.333333 0.0
0.908333 0.833333 0.0
0.908333 0.333333 0.5
0.883333 0.833333 0.5
0.758333 0.333333 0.5
0.883333 0.333333 0.0
0.858333 0.333333 0.5
0.833333 0.833333 0.5
0.833333 0.333333 0.0
0.808333 0.833333 0.0
0.808333 0.333333 0.5
0.783333 0.833333 0.5
0.783333 0.333333 0.0
0.858333 0.833333 0.0
0.508333 0.333333 0.5
0.450000 0.500000 0.5
0.475000 0.500000 0.0
0.200000 0.000000 0.0
0.150000 0.500000 0.5
0.175000 0.500000 0.0
0.175000 0.000000 0.5
0.150000 0.000000 0.0
0.100000 0.500000 0.5
0.125000 0.500000 0.0
0.225000 0.000000 0.5
0.125000 0.000000 0.5
0.050000 0.500000 0.5
0.075000 0.500000 0.0
0.075000 0.000000 0.5
0.050000 0.000000 0.0
0.000000 0.500000 0.5
0.025000 0.500000 0.0
0.025000 0.000000 0.5
0.100000 0.000000 0.0
0.225000 0.500000 0.0
0.200000 0.500000 0.5
0.250000 0.000000 0.0
0.475000 0.000000 0.5
0.450000 0.000000 0.0
0.400000 0.500000 0.5
0.425000 0.500000 0.0
0.425000 0.000000 0.5
0.400000 0.000000 0.0
0.350000 0.500000 0.5
0.375000 0.500000 0.0
0.375000 0.000000 0.5
0.350000 0.000000 0.0
0.300000 0.500000 0.5
0.325000 0.500000 0.0
0.325000 0.000000 0.5
0.300000 0.000000 0.0
0.250000 0.500000 0.5
0.275000 0.500000 0.0
0.275000 0.000000 0.5
0.983333 0.333333 0.0
0.983333 0.833333 0.5