Interface 33
1.000000 
32.0   0.0   0.
 0.0   4.0   0.
 0.0   0.0   4.
Al
32 
Direct 
0.000000 0.000000 0.000000
0.916667 0.833333 0.333333
0.916667 0.333333 0.833333
0.854167 0.833333 0.833333
0.854167 0.333333 0.333333
0.791667 0.833333 0.333333
0.791667 0.333333 0.833333
0.729167 0.833333 0.833333
0.729167 0.333333 0.333333
0.666667 0.833333 0.333333
0.666667 0.333333 0.833333
0.604167 0.833333 0.833333
0.604167 0.333333 0.333333
0.541667 0.833333 0.333333
0.541667 0.333333 0.833333
0.375000 0.500000 0.500000
0.437500 0.500000 0.000000
0.437500 0.000000 0.500000
0.375000 0.000000 0.000000
0.250000 0.500000 0.500000
0.312500 0.500000 0.000000
0.312500 0.000000 0.500000
0.250000 0.000000 0.000000
0.125000 0.500000 0.500000
0.187500 0.500000 0.000000
0.187500 0.000000 0.500000
0.125000 0.000000 0.000000
0.000000 0.500000 0.500000
0.062500 0.500000 0.000000
0.062500 0.000000 0.500000
0.979167 0.333333 0.333333
0.979167 0.833333 0.833333