Interface 36
1.000000 
40.0   0.0   0.
 0.0   4.0   0.
 0.0   0.0   4.
Al
40 
Direct 
0.000000 0.000000 0.0
0.566667 0.333333 0.0
0.566667 0.833333 0.5
0.616667 0.333333 0.5
0.616667 0.833333 0.0
0.666667 0.333333 0.0
0.666667 0.833333 0.5
0.716667 0.333333 0.5
0.516667 0.833333 0.0
0.716667 0.833333 0.0
0.766667 0.833333 0.5
0.816667 0.333333 0.5
0.816667 0.833333 0.0
0.866667 0.333333 0.0
0.866667 0.833333 0.5
0.916667 0.333333 0.5
0.916667 0.833333 0.0
0.766667 0.333333 0.0
0.516667 0.333333 0.5
0.400000 0.500000 0.5
0.450000 0.500000 0.0
0.050000 0.000000 0.5
0.050000 0.500000 0.0
0.000000 0.500000 0.5
0.100000 0.000000 0.0
0.150000 0.000000 0.5
0.150000 0.500000 0.0
0.100000 0.500000 0.5
0.200000 0.000000 0.0
0.250000 0.000000 0.5
0.250000 0.500000 0.0
0.200000 0.500000 0.5
0.300000 0.000000 0.0
0.350000 0.000000 0.5
0.350000 0.500000 0.0
0.300000 0.500000 0.5
0.400000 0.000000 0.0
0.450000 0.000000 0.5
0.966667 0.333333 0.0
0.966667 0.833333 0.5