Bulk|Vacuum  11x4
1.000000 
60.0   0.0   0.
 0.0   4.0   0.
 0.0   0.0   4.
Al
44 
Direct 
0.000000 0.0 0.0
0.400000 0.0 0.0
0.433333 0.0 0.5
0.433333 0.5 0.0
0.400000 0.5 0.5
0.466667 0.0 0.0
0.500000 0.0 0.5
0.500000 0.5 0.0
0.466667 0.5 0.5
0.333333 0.5 0.5
0.533333 0.0 0.0
0.566667 0.5 0.0
0.533333 0.5 0.5
0.600000 0.0 0.0
0.633333 0.0 0.5
0.633333 0.5 0.0
0.600000 0.5 0.5
0.666667 0.0 0.0
0.700000 0.0 0.5
0.566667 0.0 0.5
0.366667 0.5 0.0
0.366667 0.0 0.5
0.333333 0.0 0.0
0.033333 0.0 0.5
0.033333 0.5 0.0
0.000000 0.5 0.5
0.066667 0.0 0.0
0.100000 0.0 0.5
0.100000 0.5 0.0
0.066667 0.5 0.5
0.133333 0.0 0.0
0.166667 0.0 0.5
0.166667 0.5 0.0
0.133333 0.5 0.5
0.200000 0.0 0.0
0.233333 0.0 0.5
0.233333 0.5 0.0
0.200000 0.5 0.5
0.266667 0.0 0.0
0.300000 0.0 0.5
0.300000 0.5 0.0
0.266667 0.5 0.5
0.700000 0.5 0.0
0.666667 0.5 0.5