Interface 23
1.000000 
32.0   0.0   0.
 0.0   4.0   0.
 0.0   0.0   4.
Al
32 
Direct 
0.0000 0.00 0.0
0.8750 0.75 0.0
0.8750 0.25 0.5
0.8125 0.75 0.5
0.8125 0.25 0.0
0.7500 0.75 0.0
0.7500 0.25 0.5
0.6875 0.75 0.5
0.6875 0.25 0.0
0.6250 0.75 0.0
0.6250 0.25 0.5
0.5625 0.75 0.5
0.5625 0.25 0.0
0.5000 0.75 0.0
0.5000 0.25 0.5
0.3750 0.50 0.5
0.4375 0.50 0.0
0.4375 0.00 0.5
0.3750 0.00 0.0
0.2500 0.50 0.5
0.3125 0.50 0.0
0.3125 0.00 0.5
0.2500 0.00 0.0
0.1250 0.50 0.5
0.1875 0.50 0.0
0.1875 0.00 0.5
0.1250 0.00 0.0
0.0000 0.50 0.5
0.0625 0.50 0.0
0.0625 0.00 0.5
0.9375 0.25 0.0
0.9375 0.75 0.5