Interface 17
1.000000 
40.0   0.0   0.
 0.0   4.0   0.
 0.0   0.0   4.
Al
40 
Direct 
0.00 0.0 0.000000
0.55 0.0 0.166667
0.55 0.5 0.666667
0.60 0.0 0.666667
0.60 0.5 0.166667
0.65 0.0 0.166667
0.65 0.5 0.666667
0.70 0.0 0.666667
0.50 0.5 0.166667
0.70 0.5 0.166667
0.75 0.5 0.666667
0.80 0.0 0.666667
0.80 0.5 0.166667
0.85 0.0 0.166667
0.85 0.5 0.666667
0.90 0.0 0.666667
0.90 0.5 0.166667
0.75 0.0 0.166667
0.50 0.0 0.666667
0.40 0.5 0.500000
0.45 0.5 0.000000
0.05 0.0 0.500000
0.05 0.5 0.000000
0.00 0.5 0.500000
0.10 0.0 0.000000
0.15 0.0 0.500000
0.15 0.5 0.000000
0.10 0.5 0.500000
0.20 0.0 0.000000
0.25 0.0 0.500000
0.25 0.5 0.000000
0.20 0.5 0.500000
0.30 0.0 0.000000
0.35 0.0 0.500000
0.35 0.5 0.000000
0.30 0.5 0.500000
0.40 0.0 0.000000
0.45 0.0 0.500000
0.95 0.0 0.166667
0.95 0.5 0.666667