Interface 23
1.000000 
80.0   0.0   0.
 0.0   4.0   0.
 0.0   0.0   4.
Al
80 
Direct 
0.000 0.00 0.0
0.700 0.75 0.0
0.700 0.25 0.5
0.675 0.75 0.5
0.675 0.25 0.0
0.650 0.75 0.0
0.650 0.25 0.5
0.625 0.75 0.5
0.725 0.25 0.0
0.625 0.25 0.0
0.600 0.25 0.5
0.575 0.75 0.5
0.575 0.25 0.0
0.550 0.75 0.0
0.550 0.25 0.5
0.525 0.75 0.5
0.525 0.25 0.0
0.600 0.75 0.0
0.500 0.75 0.0
0.725 0.75 0.5
0.750 0.75 0.0
0.950 0.75 0.0
0.950 0.25 0.5
0.925 0.75 0.5
0.925 0.25 0.0
0.900 0.75 0.0
0.900 0.25 0.5
0.875 0.75 0.5
0.750 0.25 0.5
0.875 0.25 0.0
0.850 0.25 0.5
0.825 0.75 0.5
0.825 0.25 0.0
0.800 0.75 0.0
0.800 0.25 0.5
0.775 0.75 0.5
0.775 0.25 0.0
0.850 0.75 0.0
0.500 0.25 0.5
0.450 0.50 0.5
0.475 0.50 0.0
0.200 0.00 0.0
0.150 0.50 0.5
0.175 0.50 0.0
0.175 0.00 0.5
0.150 0.00 0.0
0.100 0.50 0.5
0.125 0.50 0.0
0.225 0.00 0.5
0.125 0.00 0.5
0.050 0.50 0.5
0.075 0.50 0.0
0.075 0.00 0.5
0.050 0.00 0.0
0.000 0.50 0.5
0.025 0.50 0.0
0.025 0.00 0.5
0.100 0.00 0.0
0.225 0.50 0.0
0.200 0.50 0.5
0.250 0.00 0.0
0.475 0.00 0.5
0.450 0.00 0.0
0.400 0.50 0.5
0.425 0.50 0.0
0.425 0.00 0.5
0.400 0.00 0.0
0.350 0.50 0.5
0.375 0.50 0.0
0.375 0.00 0.5
0.350 0.00 0.0
0.300 0.50 0.5
0.325 0.50 0.0
0.325 0.00 0.5
0.300 0.00 0.0
0.250 0.50 0.5
0.275 0.50 0.0
0.275 0.00 0.5
0.975 0.25 0.0
0.975 0.75 0.5