Interface 6
1.000000 
40.0   0.0   0.
 0.0   4.0   0.
 0.0   0.0   4.
Al
40 
Direct 
0.000 0.00 0.0
0.575 0.25 0.5
0.575 0.75 0.0
0.625 0.25 0.0
0.625 0.75 0.5
0.675 0.25 0.5
0.675 0.75 0.0
0.725 0.25 0.0
0.525 0.75 0.5
0.725 0.75 0.5
0.775 0.75 0.0
0.825 0.25 0.0
0.825 0.75 0.5
0.875 0.25 0.5
0.875 0.75 0.0
0.925 0.25 0.0
0.925 0.75 0.5
0.775 0.25 0.5
0.525 0.25 0.0
0.400 0.50 0.5
0.450 0.50 0.0
0.050 0.00 0.5
0.050 0.50 0.0
0.000 0.50 0.5
0.100 0.00 0.0
0.150 0.00 0.5
0.150 0.50 0.0
0.100 0.50 0.5
0.200 0.00 0.0
0.250 0.00 0.5
0.250 0.50 0.0
0.200 0.50 0.5
0.300 0.00 0.0
0.350 0.00 0.5
0.350 0.50 0.0
0.300 0.50 0.5
0.400 0.00 0.0
0.450 0.00 0.5
0.975 0.25 0.5
0.975 0.75 0.0