Interface 7
1.000000 
56.0   0.0   0.
 0.0   4.0   0.
 0.0   0.0   4.
Al
56 
Direct 
0.000000 0.00 0.00
0.553571 0.25 0.75
0.553571 0.75 0.25
0.589286 0.25 0.25
0.589286 0.75 0.75
0.625000 0.25 0.75
0.625000 0.75 0.25
0.660714 0.25 0.25
0.660714 0.75 0.75
0.696429 0.25 0.75
0.696429 0.75 0.25
0.732143 0.25 0.25
0.517857 0.75 0.75
0.732143 0.75 0.75
0.767857 0.75 0.25
0.803571 0.25 0.25
0.803571 0.75 0.75
0.839286 0.25 0.75
0.839286 0.75 0.25
0.875000 0.25 0.25
0.875000 0.75 0.75
0.910714 0.25 0.75
0.910714 0.75 0.25
0.946429 0.25 0.25
0.946429 0.75 0.75
0.767857 0.25 0.75
0.517857 0.25 0.25
0.428571 0.50 0.50
0.464286 0.50 0.00
0.035714 0.00 0.50
0.035714 0.50 0.00
0.000000 0.50 0.50
0.071429 0.00 0.00
0.107143 0.00 0.50
0.107143 0.50 0.00
0.071429 0.50 0.50
0.142857 0.00 0.00
0.178571 0.00 0.50
0.178571 0.50 0.00
0.142857 0.50 0.50
0.214286 0.00 0.00
0.250000 0.00 0.50
0.250000 0.50 0.00
0.214286 0.50 0.50
0.285714 0.00 0.00
0.321429 0.00 0.50
0.321429 0.50 0.00
0.285714 0.50 0.50
0.357143 0.00 0.00
0.392857 0.00 0.50
0.392857 0.50 0.00
0.357143 0.50 0.50
0.428571 0.00 0.00
0.464286 0.00 0.50
0.982143 0.25 0.75
0.982143 0.75 0.25